; benchmark generated from python API
(set-info :status unknown)
(declare-datatypes ((IntState 0)) (((Mk1 (val1 Int)) (Mk2 (val2 Int)))))
 (declare-fun c_main_~x~0_primed () Int)
(declare-fun c_main_~y~0_primed () Int)
(declare-fun c_main_~z~0_primed () Int)
(declare-fun c_main_~x~0 () Int)
(declare-fun c_main_~y~0 () Int)
(declare-fun c_main_~z~0 () Int)
(declare-fun |c_main_#t~nondet0| () Int)
(declare-fun |c_main_#t~nondet2| () Int)
(declare-fun |c_main_#t~nondet1| () Int)
(assert
 (let (($x40 (exists ((|v_main_#t~nondet0_5_st| IntState) (val!141 Int) )(exists ((|v_main_#t~nondet0_6_st| IntState) (val!142 Int) )(let (($x75 (= (+ (* 2 (val2 |v_main_#t~nondet0_5_st|)) (* 2 (val2 |v_main_#t~nondet0_6_st|))) c_main_~x~0_primed)))
 (let (($x112 (not (= |v_main_#t~nondet0_6_st| (Mk1 val!142)))))
 (let (($x48 (not (= |v_main_#t~nondet0_5_st| (Mk1 val!141)))))
 (and $x48 $x112 $x75)))))
 )
 ))
 (let (($x39 (exists ((|v_main_#t~nondet1_6_st| IntState) (val!139 Int) )(exists ((|v_main_#t~nondet1_5_st| IntState) (val!140 Int) )(let (($x204 (= (+ (* 4 (val2 |v_main_#t~nondet1_6_st|)) (* 4 (val2 |v_main_#t~nondet1_5_st|))) c_main_~y~0_primed)))
 (let (($x112 (not (= |v_main_#t~nondet1_5_st| (Mk1 val!140)))))
 (let (($x48 (not (= |v_main_#t~nondet1_6_st| (Mk1 val!139)))))
 (and $x48 $x112 $x204)))))
 )
 ))
 (let (($x176 (exists ((|v_main_#t~nondet2_5_st| IntState) (val!137 Int) )(exists ((|v_main_#t~nondet2_6_st| IntState) (val!138 Int) )(let (($x80 (= c_main_~z~0_primed (+ (* 8 (val2 |v_main_#t~nondet2_5_st|)) (* 8 (val2 |v_main_#t~nondet2_6_st|))))))
 (let (($x112 (not (= |v_main_#t~nondet2_6_st| (Mk1 val!138)))))
 (let (($x48 (not (= |v_main_#t~nondet2_5_st| (Mk1 val!137)))))
 (and $x48 $x112 $x80)))))
 )
 ))
 (let (($x148 (exists ((|v_main_#t~nondet0_5| Int) )(exists ((|v_main_#t~nondet0_6| Int) )(let ((?x175 (* 2 |v_main_#t~nondet0_6|)))
 (let ((?x123 (* 2 |v_main_#t~nondet0_5|)))
 (let ((?x43 (+ ?x123 ?x175)))
 (= ?x43 c_main_~x~0)))))
 )
 ))
 (let (($x209 (exists ((|v_main_#t~nondet1_6| Int) )(exists ((|v_main_#t~nondet1_5| Int) )(let ((?x22 (* 4 |v_main_#t~nondet1_5|)))
 (let ((?x35 (* 4 |v_main_#t~nondet1_6|)))
 (let ((?x58 (+ ?x35 ?x22)))
 (= ?x58 c_main_~y~0)))))
 )
 ))
 (let (($x141 (exists ((|v_main_#t~nondet2_5| Int) )(exists ((|v_main_#t~nondet2_6| Int) )(let ((?x210 (* 8 |v_main_#t~nondet2_6|)))
 (let ((?x179 (* 8 |v_main_#t~nondet2_5|)))
 (let ((?x64 (+ ?x179 ?x210)))
 (= c_main_~z~0 ?x64)))))
 )
 ))
 (let (($x194 (and (= c_main_~y~0_primed (+ (* 4 |c_main_#t~nondet1|) c_main_~y~0)) (= c_main_~z~0_primed (+ (* 8 |c_main_#t~nondet2|) c_main_~z~0)) (= c_main_~x~0_primed (+ (* 2 |c_main_#t~nondet0|) c_main_~x~0)))))
 (and $x194 (and $x141 $x209 $x148) (not (and $x176 $x39 $x40)))))))))))
(check-sat)
